GLPSOL--GLPK LP/MIP Solver 5.0
Parameter(s) specified in the command line:
 --lp ../modeles/2_264.lp --log 2_264.log
Reading problem data from '../modeles/2_264.lp'...
537 rows, 1060 columns, 3702 non-zeros
528 integer variables, all of which are binary
1605 lines were read
GLPK Integer Optimizer 5.0
537 rows, 1060 columns, 3702 non-zeros
528 integer variables, all of which are binary
Preprocessing...
524 constraint coefficient(s) were reduced
537 rows, 1058 columns, 3700 non-zeros
528 integer variables, all of which are binary
Scaling...
 A: min|aij| =  2.296e-04  max|aij| =  4.000e+00  ratio =  1.742e+04
GM: min|aij| =  8.704e-02  max|aij| =  1.149e+01  ratio =  1.320e+02
EQ: min|aij| =  7.576e-03  max|aij| =  1.000e+00  ratio =  1.320e+02
2N: min|aij| =  3.673e-03  max|aij| =  1.708e+00  ratio =  4.650e+02
Constructing initial basis...
Size of triangular part is 537
Solving LP relaxation...
GLPK Simplex Optimizer 5.0
537 rows, 1058 columns, 3700 non-zeros
      0: obj =   4.000000000e+00 inf =   7.900e+01 (5)
     41: obj =   4.597193123e-01 inf =   0.000e+00 (0)
*   124: obj =  -1.414141414e+00 inf =   8.974e-16 (0)
OPTIMAL LP SOLUTION FOUND
Integer optimization begins...
Long-step dual simplex will be used
+   124: mip =     not found yet >=              -inf        (1; 0)
+   126: >>>>>  -1.414141414e+00 >=  -1.414141414e+00 < 0.1% (3; 0)
+   126: mip =  -1.414141414e+00 >=     tree is empty   0.0% (0; 5)
INTEGER OPTIMAL SOLUTION FOUND
Time used:   0.0 secs
Memory used: 1.6 Mb (1655418 bytes)
